sifdecoder -A pc64.lnx.gfo -st   STEENBRB

 Problem name: STEENBRB

 Double precision version will be formed

 The objective function uses 1 nonlinear group
 
 There are 108 linear equality constraints
 
 There are 468 variables bounded only from below 
 
 
 File successfully decoded
 CUTEST: tools (double precision version) compiled successfully
 CUTEst: ipopt (double precision version) compiled successfully

******************************************************************************
This program contains Ipopt, a library for large-scale nonlinear optimization.
 Ipopt is released as open source code under the Eclipse Public License (EPL).
         For more information visit http://projects.coin-or.org/Ipopt
******************************************************************************

This is Ipopt version trunk, running with linear solver ma57.

Number of nonzeros in equality constraint Jacobian...:      864
Number of nonzeros in inequality constraint Jacobian.:        0
Number of nonzeros in Lagrangian Hessian.............:     3276

Reallocating memory for MA57: lfact (161297)
Total number of variables............................:      468
                     variables with only lower bounds:      468
                variables with lower and upper bounds:        0
                     variables with only upper bounds:        0
Total number of equality constraints.................:      108
Total number of inequality constraints...............:        0
        inequality constraints with only lower bounds:        0
   inequality constraints with lower and upper bounds:        0
        inequality constraints with only upper bounds:        0

iter    objective    inf_pr   inf_du lg(mu)  ||d||  lg(rg) alpha_du alpha_pr  ls
   0  2.8587861e+03 2.00e+03 1.01e+02  -1.0 0.00e+00    -  0.00e+00 0.00e+00   0
   1  2.8576830e+03 2.00e+03 1.01e+02  -1.0 4.98e+02    -  1.99e-04 1.99e-04h  1
   2  3.7839188e+03 2.00e+03 1.01e+02  -1.0 1.95e+03    -  1.01e-04 9.04e-04h  1
   3  6.7808168e+03 1.99e+03 1.01e+02  -1.0 2.00e+03    -  8.17e-04 2.20e-03h  1
   4  1.5424543e+04 1.98e+03 1.01e+02  -1.0 2.00e+03    -  1.41e-03 6.39e-03h  1
   5  4.0127789e+04 1.94e+03 1.00e+02  -1.0 1.98e+03    -  6.73e-03 1.84e-02h  1
   6  8.6654395e+04 1.87e+03 9.87e+01  -1.0 1.94e+03    -  1.14e-02 4.01e-02h  1
   7  1.0409686e+05 1.83e+03 9.72e+01  -1.0 3.37e+03    -  2.43e-02 1.85e-02h  1
   8  1.3929127e+05 1.77e+03 9.47e+01  -1.0 1.95e+03    -  3.70e-02 3.60e-02h  1
   9  2.1443480e+05 1.62e+03 9.01e+01  -1.0 1.78e+03    -  5.37e-02 8.12e-02h  1
iter    objective    inf_pr   inf_du lg(mu)  ||d||  lg(rg) alpha_du alpha_pr  ls
  10  3.3139284e+05 1.38e+03 8.23e+01  -1.0 1.62e+03    -  1.79e-01 1.51e-01h  1
  11  5.7233488e+05 7.56e+02 6.62e+01  -1.0 1.38e+03    -  9.37e-01 4.52e-01h  1
  12  6.3325757e+05 6.52e-09 3.76e+01  -1.0 7.55e+02    -  7.11e-01 1.00e+00h  1
  13  3.6017185e+05 3.26e-09 1.59e+01  -1.0 7.70e+01    -  1.00e+00 1.00e+00f  1
  14  2.1026010e+05 3.20e-09 6.88e+00  -1.0 1.03e+02    -  1.00e+00 9.63e-01f  1
  15  1.2232826e+05 2.00e-09 2.90e+00  -1.0 1.36e+02    -  5.11e-01 1.00e+00f  1
  16  7.2815352e+04 1.08e-09 1.22e+00  -1.0 1.81e+02    -  9.68e-01 1.00e+00f  1
  17  4.5102271e+04 5.90e-10 5.17e-01  -1.0 2.42e+02    -  1.00e+00 1.00e+00f  1
  18  2.8882592e+04 2.17e-10 2.18e-01  -1.7 3.21e+02    -  8.77e-01 1.00e+00f  1
  19  2.0043524e+04 1.27e-10 9.18e-02  -1.7 4.28e+02    -  8.54e-01 1.00e+00f  1
iter    objective    inf_pr   inf_du lg(mu)  ||d||  lg(rg) alpha_du alpha_pr  ls
  20  1.4996392e+04 4.21e-11 3.87e-02  -2.5 5.69e+02    -  8.27e-01 1.00e+00f  1
  21  1.2228277e+04 2.59e-11 1.63e-02  -2.5 7.56e+02    -  1.00e+00 1.00e+00f  1
  22  1.1618925e+04 2.03e-11 2.07e-02  -3.8 1.00e+03    -  7.73e-01 2.96e-01f  1
  23  1.0747282e+04 1.15e-11 1.49e-02  -3.8 1.09e+03    -  1.00e+00 5.82e-01f  1
  24  1.0196028e+04 7.63e-12 2.40e-02  -3.8 1.29e+03    -  1.00e+00 5.27e-01f  1
  25  9.6275640e+03 4.01e-12 2.72e-01  -3.8 1.49e+03    -  1.00e+00 9.03e-01f  1
  26  9.4531191e+03 5.11e-12 4.28e-01  -3.8 1.85e+03    -  1.76e-01 4.26e-01f  1
  27  9.3169571e+03 7.14e-12 4.41e-01  -3.8 2.03e+03    -  1.83e-01 4.68e-01f  1
  28  9.2714051e+03 2.68e-12 3.50e-01  -3.8 2.22e+03    -  4.46e-01 2.02e-01f  1
  29  9.1496617e+03 3.61e-11 8.65e-02  -3.8 2.28e+03    -  7.99e-01 8.74e-01f  1
iter    objective    inf_pr   inf_du lg(mu)  ||d||  lg(rg) alpha_du alpha_pr  ls
  30  9.1496918e+03 2.35e-11 4.97e-02  -3.8 1.86e-02   0.0 6.83e-01 9.81e-01f  1
  31  9.1101950e+03 3.56e-11 3.69e-02  -3.8 2.42e+03    -  1.00e+00 5.85e-01f  1
  32  9.1101998e+03 1.90e-11 1.16e-02  -3.8 8.96e-03  -0.5 1.00e+00 1.00e+00f  1
  33  9.1102120e+03 4.03e-12 3.95e-03  -3.8 7.95e-03  -1.0 1.00e+00 1.00e+00f  1
  34  9.1102161e+03 1.27e-12 8.03e-04  -3.8 5.75e-03  -1.4 1.00e+00 1.00e+00f  1
  35  9.0938274e+03 1.14e-12 1.22e-02  -5.7 2.33e+03    -  8.38e-01 4.17e-01f  1
  36  9.0934858e+03 6.82e-13 5.43e-02  -5.7 4.49e-02  -1.9 1.00e+00 2.81e-01f  1
  37  9.0931642e+03 4.55e-13 4.06e-02  -5.7 7.31e-02  -2.4 1.00e+00 4.46e-01f  1
  38  9.0928556e+03 2.27e-13 1.60e-02  -5.7 7.66e-02  -2.9 1.00e+00 8.60e-01f  1
  39  9.0927886e+03 5.16e-13 3.85e-03  -5.7 2.30e-01  -3.3 1.00e+00 1.00e+00f  1
Reallocating memory for MA57: lfact (172203)
iter    objective    inf_pr   inf_du lg(mu)  ||d||  lg(rg) alpha_du alpha_pr  ls
  40  9.0927706e+03 7.69e-13 7.43e-04  -5.7 6.89e-01  -3.8 1.00e+00 1.00e+00f  1
  41  9.0927376e+03 4.52e-13 1.05e-04  -5.7 2.07e+00  -4.3 1.00e+00 1.00e+00f  1
  42  9.0926436e+03 2.27e-13 1.05e-04  -5.7 6.18e+00  -4.8 1.00e+00 1.00e+00f  1
  43  9.0776839e+03 6.11e-13 1.46e-04  -5.7 2.13e+03    -  1.00e+00 1.00e+00f  1
  44  9.0776692e+03 2.36e-13 2.83e-05  -5.7 5.01e+00  -5.2 1.00e+00 1.00e+00f  1
  45  9.0776269e+03 2.96e-13 2.79e-05  -5.7 1.48e+01  -5.7 1.00e+00 1.00e+00f  1
  46  9.0759215e+03 1.30e-11 2.35e-05  -5.7 1.19e+03    -  1.00e+00 1.00e+00f  1
  47  9.0759195e+03 2.98e-13 3.85e-06  -5.7 6.14e+00  -6.2 1.00e+00 1.00e+00f  1
  48  9.0758975e+03 1.72e-12 9.31e-04  -8.6 2.28e+00  -5.8 1.00e+00 8.98e-01f  1
Reallocating memory for MA57: lfact (183256)
  49  9.0758918e+03 3.42e-13 6.14e-04  -8.6 6.61e+00  -6.3 1.00e+00 8.60e-01f  1
iter    objective    inf_pr   inf_du lg(mu)  ||d||  lg(rg) alpha_du alpha_pr  ls
  50  9.0758575e+03 2.97e-13 2.49e-04  -8.6 2.64e+02    -  1.00e+00 7.83e-01f  1
Reallocating memory for MA57: lfact (192683)
  51  9.0758572e+03 4.87e-13 2.13e-04  -8.6 4.23e+00  -6.7 1.00e+00 7.37e-01f  1
Reallocating memory for MA57: lfact (209922)
  52  9.0758567e+03 2.07e-12 5.07e-03  -8.6 1.01e+01  -7.2 8.00e-02 9.16e-01f  1
  53  9.0758566e+03 3.29e-13 6.30e-07  -8.6 4.77e-01  -5.9 1.00e+00 1.00e+00f  1
  54  9.0758566e+03 3.01e-13 6.27e-07  -8.6 1.78e-01  -5.5 1.00e+00 1.00e+00h  1
  55  9.0758566e+03 2.27e-13 6.17e-07  -8.6 5.25e-01  -5.9 1.00e+00 1.00e+00h  1
  56  9.0758565e+03 2.70e-13 5.90e-07  -8.6 1.51e+00  -6.4 1.00e+00 1.00e+00h  1
  57  9.0758565e+03 4.73e-13 5.80e-07  -8.6 5.55e-01  -6.0 1.00e+00 1.00e+00h  1
  58  9.0758564e+03 2.62e-13 5.51e-07  -8.6 1.58e+00  -6.5 1.00e+00 1.00e+00h  1
  59  9.0758562e+03 2.46e-13 4.76e-07  -8.6 4.11e+00  -6.9 1.00e+00 1.00e+00f  1
iter    objective    inf_pr   inf_du lg(mu)  ||d||  lg(rg) alpha_du alpha_pr  ls
  60  9.0758562e+03 2.56e-13 4.73e-07  -8.6 1.91e-01  -5.6 1.00e+00 1.00e+00h  1
  61  9.0758562e+03 4.08e-13 4.63e-07  -8.6 5.61e-01  -6.1 1.00e+00 1.00e+00h  1
  62  9.0758554e+03 1.41e-12 1.06e-08  -8.6 6.07e+01    -  1.00e+00 1.00e+00f  1
  63  9.0758554e+03 4.55e-13 2.51e-08  -9.0 5.98e-03  -6.6 1.00e+00 1.00e+00h  1
  64  9.0758554e+03 6.38e-11 1.64e-09  -9.0 2.23e-03  -6.1 1.00e+00 1.00e+00h  1

Number of Iterations....: 64

                                   (scaled)                 (unscaled)
Objective...............:   2.6273175753595228e+02    9.0758553866051461e+03
Dual infeasibility......:   1.6355433973273521e-09    5.6498519599895253e-08
Constraint violation....:   6.3762505866310482e-11    6.3762505866310482e-11
Complementarity.........:   9.0909090912624481e-10    3.1403807830038054e-08
Overall NLP error.......:   1.6355433973273521e-09    5.6498519599895253e-08


Number of objective function evaluations             = 65
Number of objective gradient evaluations             = 65
Number of equality constraint evaluations            = 65
Number of inequality constraint evaluations          = 0
Number of equality constraint Jacobian evaluations   = 65
Number of inequality constraint Jacobian evaluations = 0
Number of Lagrangian Hessian evaluations             = 64
Total CPU secs in IPOPT (w/o function evaluations)   =      2.328
Total CPU secs in NLP function evaluations           =      0.058

EXIT: Optimal Solution Found.

************************ CUTEst statistics ************************


 Package used            :  IPOPT
 Problem                 :  STEENBRB  
 # variables             =             468
 # constraints           =             108
 # objective functions   =        0.1310000E+03
 # objective gradients   =        0.6600000E+02
 # objective Hessians    =        0.6500000E+02
 # Hessian-vector prdct  =        0.0000000E+00
 # constraints functions =        0.1320000E+03
 # constraints gradients =        0.6700000E+02
 # constraints Hessians  =        0.6500000E+02
 Exit code               =               0
 Final f                 =        9.0758553866051461D+03
 Bounds feasibility      =        0.0000000000000000D+00
 Set up time             =            0.05 seconds
 Solve time              =            5.01 seconds


******************************************************************

